5 5
6 3 5 12 2 2 3 3 4 5 9 4 10 3 2 1 9 5 3 17 4 10 5 17 1 13 2 11 5 2 14 4 20 1 7 5 2 3 4 4 2 16 3 16 5 17 4 19 1 4 14
5 3 4 12 1 11 5 14 2 3 7 4 13 4 4 4 5 18 2 18 1 6 2 3 2 5 18 1 4 10
8 5 1 4 5 18 4 18 2 13 3 14 3 5 8 4 17 3 13 2 5 10 1 17 5 3 12 2 11 5 2 1 3 4 10 5 5 17 3 4 4 2 1 14 2 9 3 3 18 5 14 4 19 3 2 16 1 13 3 10 2 3 15 5 17
4 4 3 8 1 12 4 19 5 16 3 4 8 5 17 1 20 2 4 2 5 3 3 5 12 4 4 1 15
4 4 3 15 4 12 2 5 1 18 2 2 3 1 14 5 5 19 2 11 3 2 4 17 1 2 3 2 4 4 10 1 3